203670 
101835 76
0
75
2
1
23
22
21
25
24
46
45
27
26
29
30
31
19
20
5
4
3
7
8
6
9
10
11
12
13
14
74
15
16
17
18
37
36
38
39
61
62
63
64
73
72
71
65
66
51
56
55
57
58
59
60
41
40
34
35
32
33
28
43
42
54
53
52
50
49
48
44
47
69
68
67
70

101835 76
0
75
2
1
23
22
21
25
24
46
45
27
26
29
30
31
19
20
5
4
3
7
8
6
9
10
11
12
13
14
74
15
16
17
18
37
36
38
39
61
62
63
64
73
72
71
65
66
51
56
55
57
58
59
60
41
40
34
35
32
33
28
43
42
54
53
52
50
49
48
44
47
69
68
67
70

